{
  "time": [
    16,
    20,
    25,
    28,
    29,
    31,
    32,
    35,
    36,
    37,
    38,
    40,
    45,
    47,
    48,
    61,
    63,
    63,
    69,
    73,
    74,
    87,
    94,
    95,
    95,
    105,
    107,
    108,
    109,
    120,
    121,
    122,
    127,
    131,
    139,
    140,
    152,
    156,
    166,
    167,
    186,
    188,
    191,
    192,
    193,
    194,
    196,
    197,
    198,
    199,
    204,
    206,
    208,
    210,
    213,
    215,
    216,
    218,
    223,
    227,
    233,
    238,
    240,
    243,
    244,
    245,
    252,
    254,
    260,
    265,
    285,
    286,
    287,
    289,
    289,
    290,
    290,
    291,
    292,
    293,
    295,
    297,
    298,
    300,
    322,
    325,
    331,
    338,
    340,
    341,
    347,
    363,
    364,
    366,
    373,
    373,
    375,
    377,
    379,
    380,
    381,
    383,
    388,
    391,
    395,
    399,
    415,
    451
  ],
  "cost": [
    900,
    899,
    894,
    886,
    870,
    869,
    867,
    857,
    842,
    841,
    838,
    835,
    827,
    825,
    824,
    823,
    822,
    821,
    820,
    817,
    816,
    813,
    805,
    800,
    798,
    797,
    795,
    793,
    792,
    786,
    785,
    784,
    783,
    781,
    773,
    768,
    763,
    758,
    757,
    755,
    750,
    744,
    734,
    731,
    730,
    718,
    716,
    708,
    707,
    706,
    704,
    695,
    694,
    693,
    684,
    683,
    682,
    681,
    678,
    677,
    675,
    673,
    672,
    664,
    663,
    662,
    660,
    652,
    648,
    647,
    644,
    642,
    641,
    640,
    631,
    629,
    628,
    626,
    623,
    621,
    618,
    617,
    616,
    615,
    614,
    607,
    600,
    599,
    596,
    595,
    590,
    589,
    587,
    586,
    585,
    581,
    580,
    579,
    578,
    574,
    571,
    570,
    569,
    568,
    566,
    564,
    560,
    541
  ]
}